(set-logic QF_LRA)
(set-option :finite-model-find true)
(declare-fun _substvar_19_ () Real)
(declare-fun _substvar_26_ () Real)
(assert (>= _substvar_26_ (/ 0.0 0.0) _substvar_19_ 54081.0))
(check-sat)
